\LP file generated from the problem `Slots selection' by the
\Xpress Builder Component Library Xpress BCL

Minimize
obj: 66 WR_(32) + 1.00003e+006 WR_(33) + 130 WR_(34) + 1.00003e+006 WR_(35) + 
1.00003e+006 WR_(36) + 136 WR_(37) + 1.00009e+006 WR_(38) + 1.00008e+006 WR_(39) + 
1.00012e+006 WR_(40) + 1.00003e+006 WR_(41) + 1.00003e+006 WR_(42) + 1.00008e+006 WR_(43) + 
145 WR_(44) + 62 WR_(45) + 1.00003e+006 WR_(46) + 1.00003e+006 WR_(47) + 1.00003e+006 WR_(48) + 
151 WR_(49) + 1.00008e+006 WR_(50) + 1.00003e+006 WR_(51) + 1.00003e+006 WR_(52) + 
1.00003e+006 WR_(53) + 1.00003e+006 WR_(54) + 1.00009e+006 WR_(55) + 1.00003e+006 WR_(56) + 
1.00006e+006 WR_(57) + 1.00003e+006 WR_(58) + 1.00003e+006 WR_(59) + 1.00009e+006 WR_(60) + 
1.00006e+006 WR_(61) + 1.00003e+006 WR_(62) + 1.00003e+006 WR_(63) + 1.00012e+006 WR_(64) + 
1.00008e+006 WR_(65) + 1.00006e+006 WR_(66) + 1.00003e+006 WR_(67) + 1.00006e+006 WR_(68) + 
1.00003e+006 WR_(69) + 1.00006e+006 WR_(70) + 61 WR_(0) + 1.00005e+006 WR_(1) + 
125 WR_(2) + 64 WR_(3) + 1.00003e+006 WR_(4) + 1.00003e+006 WR_(5) + 100 WR_(6) + 
1.00003e+006 WR_(7) + 1.00006e+006 WR_(8) + 126 WR_(9) + 1.00009e+006 WR_(10) + 
1.00003e+006 WR_(11) + 1.00008e+006 WR_(12) + 135 WR_(13) + 125 WR_(14) + 1.00006e+006 WR_(15) + 
1.00005e+006 WR_(16) + 253 WR_(17) + 1.00012e+006 WR_(18) + 69 WR_(19) + 183 WR_(20) + 
97 WR_(21) + 1.00009e+006 WR_(22) + 285 WR_(23) + 159 WR_(24) + 1.00006e+006 WR_(25) + 
1.00009e+006 WR_(26) + 1.00003e+006 WR_(27) + 1.00003e+006 WR_(28) + 1.00006e+006 WR_(29) + 
156 WR_(30) + 1.00003e+006 WR_(31) + 1.00003e+006 WR_(71) + 1.00008e+006 WR_(72) + 
1.00005e+006 WR_(73) + 1.00003e+006 WR_(74) + 61 WR_(75) + 270 WR_(76) + 125 WR_(77) + 
197 WR_(78) + 185 WR_(79) + 186 WR_(80) + 286 WR_(81) + 219 WR_(82) + 1.00006e+006 WR_(83) + 
286 WR_(84) + 125 WR_(85) + 1.00003e+006 WR_(86) + 1.00008e+006 WR_(87) + 135 WR_(88) + 
288 WR_(89) + 129 WR_(90) + 145 WR_(91) + 124 WR_(92) + 183 WR_(93) + 69 WR_(94) + 
183 WR_(95) + 97 WR_(96) + 1.00009e+006 WR_(97) + 285 WR_(98) + 159 WR_(99) + 
129 WR_(100) + 1.00009e+006 WR_(101) + 69 WR_(102) + 1.00003e+006 WR_(103) + 
225 WR_(104) + 99 WR_(105) + 1.00003e+006 WR_(106) + 68 WR_(107) + 1.00003e+006 WR_(108) + 
1.00003e+006 WR_(217) + 1.00006e+006 WR_(218) + 83 WR_(219) + 1.00006e+006 WR_(220) + 
96 WR_(221) + 1.00008e+006 WR_(222) + 1.00005e+006 WR_(223) + 114 WR_(224) + 
1.00003e+006 WR_(225) + 1.00009e+006 WR_(226) + 1.00003e+006 WR_(227) + 1.00005e+006 WR_(228) + 
1.00003e+006 WR_(229) + 1.00003e+006 WR_(230) + 1.00006e+006 WR_(231) + 1.00003e+006 WR_(232) + 
1.00003e+006 WR_(233) + 1.00003e+006 WR_(234) + 1.00003e+006 WR_(235) + 1.00003e+006 WR_(236) + 
1.00006e+006 WR_(237) + 1.00003e+006 WR_(238) + 1.00006e+006 WR_(239) + 1.00006e+006 WR_(240) + 
1.00003e+006 WR_(241) + 1.00003e+006 WR_(242) + 1.00003e+006 WR_(243) + 1.00003e+006 WR_(244) + 
1.00009e+006 WR_(245) + 1.00009e+006 WR_(246) + 1.00003e+006 WR_(247) + 1.00009e+006 WR_(248) + 
1.00003e+006 WR_(249) + 1.00009e+006 WR_(250) + 1.00003e+006 WR_(251) + 1.00008e+006 WR_(252) + 
161 WR_(109) + 1.00003e+006 WR_(110) + 1.00003e+006 WR_(111) + 136 WR_(112) + 
1.00009e+006 WR_(113) + 201 WR_(114) + 201 WR_(115) + 1.00003e+006 WR_(116) + 
1.00003e+006 WR_(117) + 1.00008e+006 WR_(118) + 145 WR_(119) + 62 WR_(120) + 
151 WR_(121) + 1.00003e+006 WR_(122) + 68 WR_(123) + 169 WR_(124) + 1.00008e+006 WR_(125) + 
68 WR_(126) + 1.00003e+006 WR_(127) + 1.00003e+006 WR_(128) + 101 WR_(129) + 
187 WR_(130) + 121 WR_(131) + 1.00006e+006 WR_(132) + 1.00003e+006 WR_(133) + 
186 WR_(134) + 1.00009e+006 WR_(135) + 1.00006e+006 WR_(136) + 1.00003e+006 WR_(137) + 
1.00003e+006 WR_(138) + 1.00012e+006 WR_(139) + 114 WR_(140) + 1.00006e+006 WR_(141) + 
1.00003e+006 WR_(142) + 1.00006e+006 WR_(143) + 83 WR_(144) + 1.00006e+006 WR_(145) + 
96 WR_(146) + 1.00008e+006 WR_(147) + 1.00005e+006 WR_(148) + 114 WR_(149) + 
61 WR_(150) + 237 WR_(151) + 125 WR_(152) + 137 WR_(153) + 186 WR_(154) + 188 WR_(155) + 
100 WR_(156) + 220 WR_(157) + 1.00006e+006 WR_(158) + 126 WR_(159) + 1.00009e+006 WR_(160) + 
1.00003e+006 WR_(161) + 1.00008e+006 WR_(162) + 135 WR_(163) + 125 WR_(164) + 
1.00006e+006 WR_(165) + 1.00005e+006 WR_(166) + 253 WR_(167) + 1.00012e+006 WR_(168) + 
69 WR_(169) + 183 WR_(170) + 97 WR_(171) + 1.00009e+006 WR_(172) + 285 WR_(173) + 
159 WR_(174) + 1.00006e+006 WR_(175) + 1.00009e+006 WR_(176) + 1.00003e+006 WR_(177) + 
1.00003e+006 WR_(178) + 1.00006e+006 WR_(179) + 99 WR_(180) + 1.00003e+006 WR_(181) + 
68 WR_(182) + 1.00003e+006 WR_(183) + 130 WR_(184) + 1.00003e+006 WR_(185) + 
1.00003e+006 WR_(186) + 136 WR_(187) + 1.00009e+006 WR_(188) + 1.00008e+006 WR_(189) + 
1.00012e+006 WR_(190) + 1.00003e+006 WR_(191) + 1.00003e+006 WR_(192) + 1.00008e+006 WR_(193) + 
145 WR_(194) + 62 WR_(195) + 151 WR_(196) + 1.00003e+006 WR_(197) + 68 WR_(198) + 
85 WR_(199) + 1.00008e+006 WR_(200) + 68 WR_(201) + 1.00003e+006 WR_(202) + 
1.00003e+006 WR_(203) + 63 WR_(204) + 1.00009e+006 WR_(205) + 121 WR_(206) + 
1.00006e+006 WR_(207) + 1.00003e+006 WR_(208) + 62 WR_(209) + 1.00009e+006 WR_(210) + 
1.00006e+006 WR_(211) + 1.00003e+006 WR_(212) + 1.00003e+006 WR_(213) + 1.00012e+006 WR_(214) + 
1.00008e+006 WR_(215) + 1.00006e+006 WR_(216) + 1.00006e+006 WR_(253) + 1.00003e+006 WR_(254) + 
1.00003e+006 WR_(255) + 1.00012e+006 WR_(256) + 1.00008e+006 WR_(257) + 1.00009e+006 WR_(258) + 
1.00003e+006 WR_(259) + 1.00009e+006 WR_(260) + 1.00008e+006 WR_(261) + 1.00006e+006 WR_(262) + 
1.00006e+006 WR_(263) + 1.00008e+006 WR_(264) + 1.00012e+006 WR_(265) + 1.00003e+006 WR_(266) + 
1.00003e+006 WR_(267) + 1.00005e+006 WR_(268) + 1.00008e+006 WR_(269) + 1.00005e+006 WR_(270) + 
1.00012e+006 WR_(271) + 1.00003e+006 WR_(272) + 1.00006e+006 WR_(273) + 1.00003e+006 WR_(274) + 
1.00006e+006 WR_(275) + 1.00003e+006 WR_(276) + 1.00009e+006 WR_(277) + 1.00003e+006 WR_(278) + 
1.00006e+006 WR_(279) + 1.00003e+006 WR_(280) + 1.00003e+006 WR_(281) + 1.00006e+006 WR_(282) + 
1.00003e+006 WR_(283) + 1.00003e+006 WR_(284) + 1.00009e+006 WR_(285) + 1.00005e+006 WR_(286) + 
1.00008e+006 WR_(287) + 1.00008e+006 WR_(288) + 1.00008e+006 WR_(289) + 1.00006e+006 WR_(290) + 
1.00005e+006 WR_(291) + 1.00008e+006 WR_(292) + 1.00003e+006 WR_(293) + 1.00003e+006 WR_(294) + 
1.00003e+006 WR_(295) + 1.00003e+006 WR_(296) + 1.00003e+006 WR_(297) + 1.00009e+006 WR_(298) + 
1.00003e+006 WR_(299)

Subject To
slot_75: WR_(45) + WR_(19) + WR_(27) + WR_(92) + WR_(94) + WR_(102) + WR_(120) + 
WR_(169) + WR_(177) + WR_(195) + WR_(299) = 1
slot_74: WR_(26) + WR_(101) + WR_(176) + WR_(298) = 1
slot_73: WR_(54) + WR_(129) + WR_(204) + WR_(297) = 1
slot_72: WR_(53) + WR_(128) + WR_(203) + WR_(296) = 1
slot_71: WR_(52) + WR_(21) + WR_(96) + WR_(127) + WR_(171) + WR_(202) + WR_(295) = 1
slot_70: WR_(51) + WR_(123) + WR_(126) + WR_(129) + WR_(198) + WR_(201) + WR_(294) = 1
slot_69: WR_(74) + WR_(224) + WR_(140) + WR_(149) + WR_(293) = 1
slot_68: WR_(50) + WR_(125) + WR_(200) + WR_(292) = 1
slot_67: WR_(73) + WR_(223) + WR_(148) + WR_(291) = 1
slot_66: WR_(25) + WR_(90) + WR_(100) + WR_(175) + WR_(290) = 1
slot_65: WR_(72) + WR_(222) + WR_(147) + WR_(289) = 1
slot_64: WR_(24) + WR_(99) + WR_(174) + WR_(288) = 1
slot_63: WR_(23) + WR_(98) + WR_(173) + WR_(287) = 1
slot_62: WR_(49) + WR_(124) + WR_(199) + WR_(286) = 1
slot_61: WR_(22) + WR_(97) + WR_(172) + WR_(285) = 1
slot_60: WR_(49) + WR_(71) + WR_(221) + WR_(121) + WR_(146) + WR_(196) + WR_(199) + 
WR_(284) = 1
slot_59: WR_(48) + WR_(123) + WR_(126) + WR_(129) + WR_(198) + WR_(201) + WR_(204) + 
WR_(283) = 1
slot_58: WR_(21) + WR_(96) + WR_(171) + WR_(282) = 1
slot_57: WR_(47) + WR_(122) + WR_(197) + WR_(281) = 1
slot_56: WR_(46) + WR_(121) + WR_(124) + WR_(196) + WR_(280) = 1
slot_55: WR_(70) + WR_(220) + WR_(145) + WR_(279) = 1
slot_54: WR_(45) + WR_(120) + WR_(195) + WR_(278) = 1
slot_53: WR_(44) + WR_(91) + WR_(119) + WR_(194) + WR_(277) = 1
slot_52: WR_(69) + WR_(219) + WR_(144) + WR_(276) = 1
slot_51: WR_(20) + WR_(93) + WR_(95) + WR_(170) + WR_(275) = 1
slot_50: WR_(19) + WR_(92) + WR_(94) + WR_(102) + WR_(169) + WR_(274) = 1
slot_49: WR_(68) + WR_(218) + WR_(143) + WR_(273) = 1
slot_48: WR_(67) + WR_(217) + WR_(142) + WR_(272) = 1
slot_47: WR_(18) + WR_(20) + WR_(93) + WR_(95) + WR_(168) + WR_(170) + WR_(271) = 1
slot_46: WR_(17) + WR_(92) + WR_(167) + WR_(270) = 1
slot_45: WR_(43) + WR_(24) + WR_(99) + WR_(118) + WR_(121) + WR_(124) + WR_(174) + 
WR_(193) + WR_(196) + WR_(269) = 1
slot_44: WR_(44) + WR_(16) + WR_(91) + WR_(219) + WR_(119) + WR_(144) + WR_(166) + 
WR_(194) + WR_(268) = 1
slot_43: WR_(42) + WR_(117) + WR_(192) + WR_(267) = 1
slot_42: WR_(41) + WR_(116) + WR_(191) + WR_(266) = 1
slot_41: WR_(40) + WR_(17) + WR_(23) + WR_(98) + WR_(114) + WR_(115) + WR_(167) + 
WR_(173) + WR_(190) + WR_(265) = 1
slot_40: WR_(39) + WR_(17) + WR_(23) + WR_(98) + WR_(114) + WR_(115) + WR_(167) + 
WR_(173) + WR_(189) + WR_(264) = 1
slot_39: WR_(15) + WR_(90) + WR_(100) + WR_(165) + WR_(263) = 1
slot_38: WR_(49) + WR_(66) + WR_(221) + WR_(141) + WR_(146) + WR_(216) + WR_(262) = 1
slot_37: WR_(65) + WR_(224) + WR_(140) + WR_(149) + WR_(215) + WR_(261) = 1
slot_36: WR_(14) + WR_(81) + WR_(84) + WR_(89) + WR_(164) + WR_(260) = 1
slot_35: WR_(13) + WR_(88) + WR_(163) + WR_(259) = 1
slot_34: WR_(38) + WR_(113) + WR_(188) + WR_(258) = 1
slot_33: WR_(12) + WR_(87) + WR_(162) + WR_(257) = 1
slot_32: WR_(64) + WR_(139) + WR_(214) + WR_(256) = 1
slot_31: WR_(32) + WR_(63) + WR_(138) + WR_(213) + WR_(255) = 1
slot_30: WR_(62) + WR_(137) + WR_(212) + WR_(254) = 1
slot_29: WR_(61) + WR_(136) + WR_(211) + WR_(253) = 1
slot_28: WR_(37) + WR_(252) + WR_(112) + WR_(187) = 1
slot_27: WR_(36) + WR_(3) + WR_(6) + WR_(9) + WR_(14) + WR_(251) + WR_(111) + 
WR_(153) + WR_(156) + WR_(159) + WR_(164) + WR_(186) = 1
slot_26: WR_(60) + WR_(30) + WR_(104) + WR_(250) + WR_(131) + WR_(135) + WR_(206) + 
WR_(210) = 1
slot_25: WR_(35) + WR_(107) + WR_(249) + WR_(110) + WR_(182) + WR_(185) = 1
slot_24: WR_(34) + WR_(248) + WR_(109) + WR_(184) = 1
slot_23: WR_(11) + WR_(86) + WR_(247) + WR_(161) = 1
slot_22: WR_(2) + WR_(10) + WR_(77) + WR_(85) + WR_(246) + WR_(152) + WR_(160) = 1
slot_21: WR_(9) + WR_(78) + WR_(81) + WR_(84) + WR_(89) + WR_(245) + WR_(159) = 1
slot_20: WR_(33) + WR_(108) + WR_(244) + WR_(183) = 1
slot_19: WR_(32) + WR_(107) + WR_(243) + WR_(182) = 1
slot_18: WR_(31) + WR_(106) + WR_(242) + WR_(109) + WR_(181) = 1
slot_17: WR_(13) + WR_(30) + WR_(88) + WR_(104) + WR_(105) + WR_(241) + WR_(163) + 
WR_(180) = 1
slot_16: WR_(13) + WR_(29) + WR_(88) + WR_(104) + WR_(105) + WR_(240) + WR_(163) + 
WR_(179) + WR_(180) = 1
slot_15: WR_(8) + WR_(83) + WR_(239) + WR_(158) = 1
slot_14: WR_(7) + WR_(76) + WR_(82) + WR_(238) + WR_(151) + WR_(157) = 1
slot_13: WR_(6) + WR_(78) + WR_(81) + WR_(84) + WR_(89) + WR_(237) + WR_(153) + 
WR_(156) = 1
slot_12: WR_(5) + WR_(76) + WR_(79) + WR_(80) + WR_(82) + WR_(236) + WR_(130) + 
WR_(134) + WR_(151) + WR_(154) + WR_(155) + WR_(157) = 1
slot_11: WR_(59) + WR_(76) + WR_(79) + WR_(80) + WR_(82) + WR_(235) + WR_(130) + 
WR_(134) + WR_(154) + WR_(155) + WR_(157) + WR_(209) = 1
slot_10: WR_(34) + WR_(58) + WR_(234) + WR_(109) + WR_(133) + WR_(184) + WR_(208) = 1
slot_9: WR_(4) + WR_(76) + WR_(79) + WR_(80) + WR_(82) + WR_(233) + WR_(130) + 
WR_(134) + WR_(151) + WR_(154) + WR_(155) + WR_(157) + WR_(209) = 1
slot_8: WR_(3) + WR_(78) + WR_(81) + WR_(84) + WR_(89) + WR_(232) + WR_(153) = 1
slot_7: WR_(37) + WR_(57) + WR_(231) + WR_(112) + WR_(132) + WR_(187) + WR_(207) = 1
slot_6: WR_(2) + WR_(77) + WR_(85) + WR_(230) + WR_(152) = 1
slot_5: WR_(56) + WR_(30) + WR_(104) + WR_(229) + WR_(131) + WR_(206) = 1
slot_4: WR_(1) + WR_(76) + WR_(228) + WR_(151) = 1
slot_3: WR_(0) + WR_(28) + WR_(75) + WR_(103) + WR_(227) + WR_(150) + WR_(178) = 1
slot_2: WR_(55) + WR_(76) + WR_(79) + WR_(80) + WR_(82) + WR_(226) + WR_(130) + 
WR_(134) + WR_(151) + WR_(154) + WR_(155) + WR_(157) + WR_(205) = 1
slot_1: WR_(0) + WR_(75) + WR_(225) + WR_(150) = 1
slot: = 0

Bounds

Binaries
WR_(0) WR_(1) WR_(2) WR_(3) WR_(4) WR_(5) WR_(6) WR_(7) WR_(8) WR_(9) WR_(10) 
WR_(11) WR_(12) WR_(13) WR_(14) WR_(15) WR_(16) WR_(17) WR_(18) WR_(19) WR_(20) 
WR_(21) WR_(22) WR_(23) WR_(24) WR_(25) WR_(26) WR_(27) WR_(28) WR_(29) WR_(30) 
WR_(31) WR_(32) WR_(33) WR_(34) WR_(35) WR_(36) WR_(37) WR_(38) WR_(39) WR_(40) 
WR_(41) WR_(42) WR_(43) WR_(44) WR_(45) WR_(46) WR_(47) WR_(48) WR_(49) WR_(50) 
WR_(51) WR_(52) WR_(53) WR_(54) WR_(55) WR_(56) WR_(57) WR_(58) WR_(59) WR_(60) 
WR_(61) WR_(62) WR_(63) WR_(64) WR_(65) WR_(66) WR_(67) WR_(68) WR_(69) WR_(70) 
WR_(71) WR_(72) WR_(73) WR_(74) WR_(75) WR_(76) WR_(77) WR_(78) WR_(79) WR_(80) 
WR_(81) WR_(82) WR_(83) WR_(84) WR_(85) WR_(86) WR_(87) WR_(88) WR_(89) WR_(90) 
WR_(91) WR_(92) WR_(93) WR_(94) WR_(95) WR_(96) WR_(97) WR_(98) WR_(99) WR_(100) 
WR_(101) WR_(102) WR_(103) WR_(104) WR_(105) WR_(106) WR_(107) WR_(108) WR_(109) 
WR_(110) WR_(111) WR_(112) WR_(113) WR_(114) WR_(115) WR_(116) WR_(117) WR_(118) 
WR_(119) WR_(120) WR_(121) WR_(122) WR_(123) WR_(124) WR_(125) WR_(126) WR_(127) 
WR_(128) WR_(129) WR_(130) WR_(131) WR_(132) WR_(133) WR_(134) WR_(135) WR_(136) 
WR_(137) WR_(138) WR_(139) WR_(140) WR_(141) WR_(142) WR_(143) WR_(144) WR_(145) 
WR_(146) WR_(147) WR_(148) WR_(149) WR_(150) WR_(151) WR_(152) WR_(153) WR_(154) 
WR_(155) WR_(156) WR_(157) WR_(158) WR_(159) WR_(160) WR_(161) WR_(162) WR_(163) 
WR_(164) WR_(165) WR_(166) WR_(167) WR_(168) WR_(169) WR_(170) WR_(171) WR_(172) 
WR_(173) WR_(174) WR_(175) WR_(176) WR_(177) WR_(178) WR_(179) WR_(180) WR_(181) 
WR_(182) WR_(183) WR_(184) WR_(185) WR_(186) WR_(187) WR_(188) WR_(189) WR_(190) 
WR_(191) WR_(192) WR_(193) WR_(194) WR_(195) WR_(196) WR_(197) WR_(198) WR_(199) 
WR_(200) WR_(201) WR_(202) WR_(203) WR_(204) WR_(205) WR_(206) WR_(207) WR_(208) 
WR_(209) WR_(210) WR_(211) WR_(212) WR_(213) WR_(214) WR_(215) WR_(216) WR_(217) 
WR_(218) WR_(219) WR_(220) WR_(221) WR_(222) WR_(223) WR_(224) WR_(225) WR_(226) 
WR_(227) WR_(228) WR_(229) WR_(230) WR_(231) WR_(232) WR_(233) WR_(234) WR_(235) 
WR_(236) WR_(237) WR_(238) WR_(239) WR_(240) WR_(241) WR_(242) WR_(243) WR_(244) 
WR_(245) WR_(246) WR_(247) WR_(248) WR_(249) WR_(250) WR_(251) WR_(252) WR_(253) 
WR_(254) WR_(255) WR_(256) WR_(257) WR_(258) WR_(259) WR_(260) WR_(261) WR_(262) 
WR_(263) WR_(264) WR_(265) WR_(266) WR_(267) WR_(268) WR_(269) WR_(270) WR_(271) 
WR_(272) WR_(273) WR_(274) WR_(275) WR_(276) WR_(277) WR_(278) WR_(279) WR_(280) 
WR_(281) WR_(282) WR_(283) WR_(284) WR_(285) WR_(286) WR_(287) WR_(288) WR_(289) 
WR_(290) WR_(291) WR_(292) WR_(293) WR_(294) WR_(295) WR_(296) WR_(297) WR_(298) 
WR_(299) 

End
